NAME : LPS-n22-m165
COMMENT : (Lartu-Peter-Santi Plot, instance 7765 out of 39200. 22 customers.)
TYPE : CVRP
DIMENSION : 22
EDGE_WEIGHT_TYPE : EUC_2D
CAPACITY : 86
NODE_COORD_SECTION
 1 8 91
 2 30 72
 3 53 61
 4 59 54
 5 97 95
 6 50 89
 7 39 42
 8 35 69
 9 40 67
 10 69 19
 11 54 26
 12 44 54
 13 89 51
 14 82 99
 15 69 98
 16 46 67
 17 30 20
 18 44 24
 19 11 75
 20 37 15
 21 49 47
 22 68 72
DEMAND_SECTION
1 0
2 86
3 75
4 23
5 49
6 63
7 23
8 8
9 51
10 47
11 26
12 23
13 79
14 34
15 64
16 80
17 82
18 15
19 75
20 18
21 9
22 16
DEPOT_SECTION
 1
 -1
EOF
